#######################
Slurm job id: 17497813_299
Running on machine: p70
Running cmd: /nfs/shared/static-builds/gurobi1202 SOFTMEMLIMIT=125 MIPFocus=2 Presolve=1 TimeLimit=300 seed=8 /nfs/models/miplib2010/k16x240.mps.bz2
#######################
Set parameter TimeLimit to value 300
Set parameter SoftMemLimit to value 125
Set parameter MIPFocus to value 2
Set parameter LogFile to value 1202-MIPFocus2-Presolve1-TimeLimit300-k16x240-8.log
Set parameter Presolve to value 1
Set parameter Seed to value 8
Using license file /opt/gurobi/gurobi.lic

Gurobi Optimizer version 12.0.2 build v12.0.2rc0 (linux64 - "Ubuntu 22.04.4 LTS")
Copyright (c) 2025, Gurobi Optimization, LLC

Read MPS format model from file /nfs/models/miplib2010/k16x240.mps.bz2
Reading time = 0.00 seconds
k16x240: 256 rows, 480 columns, 960 nonzeros

Using Gurobi shared library /nfs/shared/static-builds/gurobi1202

CPU model: Intel(R) Xeon(R) E-2388G CPU @ 3.20GHz, instruction set [SSE2|AVX|AVX2|AVX512]
Thread count: 8 physical cores, 16 logical processors, using up to 16 threads

Non-default parameters:
TimeLimit  300
SoftMemLimit  125
MIPFocus  2
Presolve  1
Seed  8

Optimize a model with 256 rows, 480 columns and 960 nonzeros
Model fingerprint: 0x4e80885f
Variable types: 240 continuous, 240 integer (240 binary)
Coefficient statistics:
  Matrix range     [1e+00, 1e+03]
  Objective range  [1e+00, 1e+03]
  Bounds range     [1e+00, 1e+03]
  RHS range        [4e+00, 4e+02]
Found heuristic solution: objective 27117.000000
Presolve time: 0.00s
Presolved: 256 rows, 480 columns, 960 nonzeros
Variable types: 240 continuous, 240 integer (240 binary)

Root relaxation: objective 2.769838e+03, 51 iterations, 0.00 seconds (0.00 work units)

    Nodes    |    Current Node    |     Objective Bounds      |     Work
 Expl Unexpl |  Obj  Depth IntInf | Incumbent    BestBd   Gap | It/Node Time

     0     0 2769.83800    0   14 27117.0000 2769.83800  89.8%     -    0s
H    0     0                    11359.000000 2769.83800  75.6%     -    0s
H    0     0                    11342.000000 2769.83800  75.6%     -    0s
H    0     0                    11195.000000 2769.83800  75.3%     -    0s
H    0     0                    11088.000000 2769.83800  75.0%     -    0s
H    0     0                    11074.000000 2769.83800  75.0%     -    0s
     0     0 8116.87580    0   26 11074.0000 8116.87580  26.7%     -    0s
H    0     0                    10916.000000 8161.01413  25.2%     -    0s
H    0     0                    10896.000000 8588.30479  21.2%     -    0s
     0     0 8588.30479    0   25 10896.0000 8588.30479  21.2%     -    0s
     0     0 8613.92228    0   22 10896.0000 8613.92228  20.9%     -    0s
H    0     0                    10806.000000 8613.92228  20.3%     -    0s
     0     0 8718.84268    0   23 10806.0000 8718.84268  19.3%     -    0s
H    0     0                    10748.000000 8722.38805  18.8%     -    0s
     0     0 8841.21632    0   38 10748.0000 8841.21632  17.7%     -    0s
     0     0 8841.47582    0   38 10748.0000 8841.47582  17.7%     -    0s
     0     0 8979.80958    0   32 10748.0000 8979.80958  16.5%     -    0s
     0     0 9007.40772    0   37 10748.0000 9007.40772  16.2%     -    0s
     0     0 9077.96497    0   23 10748.0000 9077.96497  15.5%     -    0s
     0     0 9082.59275    0   27 10748.0000 9082.59275  15.5%     -    0s
     0     0 9104.53259    0   33 10748.0000 9104.53259  15.3%     -    0s
     0     0 9105.13485    0   33 10748.0000 9105.13485  15.3%     -    0s
     0     2 9105.67796    0   33 10748.0000 9105.67796  15.3%     -    0s
H   76    85                    10681.000000 9208.50823  13.8%  49.8    0s
H 1026   873                    10678.000000 9296.57517  12.9%  21.2    0s
H 1983  1353                    10674.000000 9415.27029  11.8%  20.5    0s
 36496 11369 10383.0963   35   21 10674.0000 10081.7619  5.55%  22.9    5s
 80007 13394     cutoff   35      10674.0000 10298.5953  3.52%  23.3   10s

Cutting planes:
  Gomory: 1
  Lift-and-project: 16
  Cover: 74
  Implied bound: 28
  Dual implied bound: 22
  MIR: 196
  Mixing: 1
  Flow cover: 259
  Flow path: 31
  Inf proof: 2
  Zero half: 9
  Network: 42
  Relax-and-lift: 2

Explored 121295 nodes (2639018 simplex iterations) in 13.40 seconds (17.85 work units)
Thread count was 16 (of 16 available processors)

Solution count 10: 10674 10678 10681 ... 11195

Optimal solution found (tolerance 1.00e-04)
Best objective 1.067400000000e+04, best bound 1.067400000000e+04, gap 0.0000%
